(set-logic QF_S)
(declare-fun var0 () String)
(assert (RegexIn var0 (RegexConcat (RegexPlus (RegexUnion (Str2Reg "000") (Str2Reg "111"))) (RegexConcat (RegexUnion (RegexPlus (Str2Reg "222")) (RegexPlus (Str2Reg "333"))) (RegexConcat (RegexPlus (RegexStar (Str2Reg "44"))) (RegexConcat (RegexPlus (RegexPlus (Str2Reg "55"))) (RegexConcat (RegexPlus (RegexStar (Str2Reg "666"))) (RegexConcat (RegexStar (RegexUnion (Str2Reg "7") (Str2Reg "8"))) (RegexConcat (RegexStar (RegexStar (Str2Reg "999"))) (RegexConcat (RegexStar (RegexPlus (Str2Reg "aaa"))) (RegexConcat (RegexPlus (RegexUnion (Str2Reg "b") (Str2Reg "c"))) (RegexConcat (RegexStar (RegexUnion (Str2Reg "dd") (Str2Reg "eee"))) (RegexConcat (RegexStar (RegexStar (Str2Reg "fff"))) (RegexConcat (RegexPlus (RegexStar (Str2Reg "g"))) (RegexConcat (RegexUnion (RegexPlus (Str2Reg "hhh")) (RegexPlus (Str2Reg "i"))) (RegexConcat (RegexUnion (RegexUnion (Str2Reg "jj") (Str2Reg "kkk")) (RegexUnion (Str2Reg "l") (Str2Reg "m"))) (RegexConcat (RegexPlus (RegexPlus (Str2Reg "nn"))) (RegexConcat (RegexUnion (RegexPlus (Str2Reg "ooo")) (RegexPlus (Str2Reg "p"))) (RegexConcat (RegexStar (RegexPlus (Str2Reg "qq"))) (RegexConcat (RegexUnion (RegexPlus (Str2Reg "rrr")) (RegexPlus (Str2Reg "ss"))) (RegexConcat (RegexPlus (RegexUnion (Str2Reg "ttt") (Str2Reg "uu"))) (RegexConcat (RegexStar (RegexPlus (Str2Reg "vv"))) (RegexConcat (RegexUnion (RegexPlus (Str2Reg "www")) (RegexPlus (Str2Reg "xx"))) (RegexConcat (RegexStar (RegexPlus (Str2Reg "yy"))) (RegexConcat (RegexPlus (RegexStar (Str2Reg "zz"))) (RegexConcat (RegexStar (RegexStar (Str2Reg "AAA"))) (RegexConcat (RegexStar (RegexUnion (Str2Reg "B") (Str2Reg "CCC"))) (RegexConcat (RegexStar (RegexStar (Str2Reg "DDD"))) (RegexConcat (RegexPlus (RegexStar (Str2Reg "E"))) (RegexConcat (RegexStar (RegexStar (Str2Reg "FF"))) (RegexConcat (RegexPlus (RegexUnion (Str2Reg "G") (Str2Reg "H"))) (RegexConcat (RegexPlus (RegexStar (Str2Reg "III"))) (RegexConcat (RegexPlus (RegexUnion (Str2Reg "JJJ") (Str2Reg "KK"))) (RegexConcat (RegexStar (RegexStar (Str2Reg "LL"))) (RegexConcat (RegexPlus (RegexPlus (Str2Reg "MMM"))) (RegexConcat (RegexUnion (RegexUnion (Str2Reg "N") (Str2Reg "OO")) (RegexUnion (Str2Reg "P") (Str2Reg "QQ"))) (RegexConcat (RegexStar (RegexUnion (Str2Reg "R") (Str2Reg "S"))) (RegexUnion (RegexPlus (Str2Reg "T")) (RegexPlus (Str2Reg "U"))))))))))))))))))))))))))))))))))))))))
(check-sat)